param grid_size := 3;
param T := 2;
param no_obstacles := 3;

param initial_velocity_index := 1;

param initial :=
	0	0
	1	0;
	
param landing :=
	0	2
	1	0;


param obstacles :
	0   1  :=
0   0   0
1   1   1
2   1   2 ;